6 100 427
0 14 68
1 73 2 8 14
2 13 47 24 27
3 37 44 9 20
4 34 63 19 70
5 58 98 9 77
6 33 42 18 4
7 18 98 9 24
8 24 79 14 48
9 17 28 3 27
10 72 67 14 6
11 78 63 8 65
12 42 48 8 27
13 1 2 13 64
14 2 28 18 72
15 32 82 4 11
16 97 38 24 77
17 39 53 14 55
18 87 1 8 6
19 42 77 18 50
20 83 27 13 22
21 79 92 2 53
22 22 39 9 23
23 58 32 18 34
24 53 84 3 48
25 38 37 24 23
26 63 59 8 47
27 42 88 24 45
28 32 88 14 6
29 38 23 13 12
30 63 32 24 5
31 22 73 23 45
32 88 94 9 26
33 58 78 13 20
34 43 62 14 39
35 73 1 14 59
36 17 32 18 2
37 87 79 24 22
38 12 24 4 61
39 48 53 8 32
40 48 23 13 67
41 7 37 4 8
42 98 77 14 76
43 34 12 18 73
